c A SAT instance generated from a 3-CNF formula that had 40 clauses and 10 variables
p cnf 10 40
6 -3 -2 0
2 5 8 0
-3 1 -8 0
-9 -5 8 0
7 8 9 0
-7 1 -2 0
10 -2 3 0
-3 -8 2 0
-1 -5 -3 0
-8 -1 -7 0
9 -7 -2 0
-4 -2 6 0
-3 -6 -8 0
10 -3 6 0
-10 -9 6 0
5 -4 8 0
-9 10 3 0
5 -4 10 0
-1 2 -8 0
-5 2 10 0
-3 5 2 0
10 1 -9 0
9 -2 -5 0
2 -9 -7 0
10 -1 6 0
3 7 1 0
7 -6 -9 0
-2 4 -8 0
9 -7 -5 0
-7 -8 10 0
-9 7 2 0
10 -6 -8 0
-8 1 -9 0
-4 -6 1 0
1 -5 8 0
-7 2 1 0
6 8 9 0
-8 7 1 0
10 3 2 0
-2 8 9 0
